c Output_time 26.03.2020 18:08:28_+0100 1585242508305875862
c ** Program information **
c program_name                          "QBRG_debug"
c version                               "0.3.20"
c date                                  "25.3.2020"
c gid_id                                "673970833836058123f633335630c185360d632e"
c author                                "Oliver Kullmann"
c url                                   "https://github.com/OKullmann/oklibrary/blob/master/Satisfiability/Transformers/Generators/Random/QBRG.cpp"
c ** Machine information **
c machine_name                          "chyna-Lenovo-G50-70"
c bogomips                              3791.08
c ** Compilation information **
c compiler_version                      "g++ 7.5.0"
c compilation_date                      "Mar_26_2020 11:16:30"
c compilation_options                   "--std=c++17 -pedantic -fmax-errors=5 -Wall -Wextra -g -D_GLIBCXX_DEBUG"
c NDEBUG                                0
c OPTIMIZE                              0
c ** Parameters **
c command-line                          "./QBRG_debug" "a40 40" "435*1,1|2-2,1" "" "1,t" ""
c output                                "QuBlRaGe_80_435_1585242508281476983.qdimacs"
c options                               "filtered,renamed"
c num_quantifier_blocks                 2
c  quantifier_blocks                    1:a1-40 2:e41-80
c num_clause-blocks                     1
c  clause-blocks                        435 * {1-40,1,1/2} | {41-80,1,1/2}
c num_e-seeds                           23+2=25
c  e-seeds                              1 0 1 0 3 80 2 40 0 40 1 435 2 1 1 1 1 2 2 2 1 1 2 1 1585242508281476363
p cnf 80 435
a 1 2 3 4 5 6 7 8 9 10 11 12 13 14 15 16 17 18 19 20 21 22 23 24 25 26 27 28 29 30 31 32 33 34 35 36 37 38 39 40 0
e 41 42 43 44 45 46 47 48 49 50 51 52 53 54 55 56 57 58 59 60 61 62 63 64 65 66 67 68 69 70 71 72 73 74 75 76 77 78 79 80 0
-5 -41 0
19 -41 0
-27 -41 0
-30 -41 0
37 -41 0
-40 -41 0
10 41 0
-11 41 0
13 41 0
19 41 0
-26 41 0
29 41 0
40 41 0
-7 -42 0
21 -42 0
36 -42 0
-39 -42 0
-19 42 0
-22 42 0
-25 42 0
-34 42 0
11 -43 0
-17 -43 0
18 -43 0
-21 -43 0
21 -43 0
26 -43 0
-28 -43 0
-33 -43 0
-38 -43 0
-2 43 0
-5 43 0
-19 43 0
19 43 0
36 43 0
8 -44 0
15 -44 0
-26 -44 0
27 -44 0
30 -44 0
-38 -44 0
-1 44 0
10 44 0
-21 44 0
-22 44 0
-25 44 0
-32 44 0
33 44 0
40 44 0
5 -45 0
-7 -45 0
-17 -45 0
21 -45 0
-30 -45 0
-34 -45 0
34 -45 0
39 -45 0
3 45 0
4 45 0
-16 45 0
-30 45 0
-32 45 0
-39 45 0
15 -46 0
19 -46 0
-22 -46 0
32 -46 0
2 46 0
8 46 0
14 46 0
16 46 0
-20 46 0
25 46 0
34 46 0
-6 -47 0
19 -47 0
25 -47 0
-3 47 0
10 47 0
-20 47 0
-24 47 0
26 47 0
-31 47 0
37 47 0
-4 -48 0
24 -48 0
37 -48 0
-2 48 0
5 48 0
10 48 0
19 48 0
21 48 0
-27 48 0
27 48 0
-38 48 0
-1 -49 0
-3 -49 0
23 -49 0
-5 49 0
15 49 0
17 49 0
27 49 0
28 49 0
-30 49 0
-40 49 0
-4 -50 0
8 -50 0
10 -50 0
-17 -50 0
-30 -50 0
-32 -50 0
-35 -50 0
-38 -50 0
-9 50 0
-10 50 0
15 50 0
-20 50 0
-21 50 0
33 50 0
8 -51 0
22 -51 0
-31 -51 0
-35 -51 0
-11 51 0
11 51 0
-15 51 0
16 51 0
28 51 0
-29 51 0
37 51 0
2 -52 0
26 -52 0
-27 -52 0
-37 -52 0
-38 -52 0
17 52 0
-22 52 0
-26 52 0
40 52 0
-14 -53 0
-16 -53 0
31 -53 0
1 53 0
-8 53 0
-9 53 0
19 53 0
21 53 0
-26 53 0
27 53 0
37 53 0
-2 -54 0
7 -54 0
-16 -54 0
-24 -54 0
-28 -54 0
29 -54 0
-33 -54 0
-1 54 0
-8 54 0
12 54 0
-13 54 0
-16 54 0
18 54 0
-31 54 0
31 54 0
40 54 0
-3 -55 0
-13 -55 0
-34 -55 0
10 55 0
11 55 0
17 55 0
-18 55 0
21 55 0
-24 55 0
26 55 0
29 55 0
-39 55 0
-2 -56 0
-12 -56 0
29 -56 0
-39 -56 0
-1 56 0
-3 56 0
4 56 0
9 56 0
-2 -57 0
-3 -57 0
4 -57 0
19 -57 0
26 -57 0
39 -57 0
-8 57 0
18 57 0
-24 57 0
33 57 0
1 -58 0
-9 -58 0
25 -58 0
-27 -58 0
-30 -58 0
-37 -58 0
-2 58 0
-18 58 0
-21 58 0
-35 58 0
2 -59 0
4 -59 0
-7 -59 0
12 -59 0
20 -59 0
-33 -59 0
38 -59 0
-2 59 0
12 59 0
-32 59 0
-34 59 0
-36 59 0
38 59 0
-40 59 0
2 -60 0
-15 -60 0
15 -60 0
7 60 0
-11 60 0
-24 60 0
-1 -61 0
-9 -61 0
16 -61 0
-24 -61 0
-35 -61 0
-39 -61 0
1 61 0
3 61 0
-5 61 0
6 61 0
16 61 0
18 61 0
25 61 0
-28 61 0
31 61 0
4 -62 0
10 -62 0
11 -62 0
17 -62 0
18 -62 0
-19 -62 0
22 -62 0
-37 -62 0
38 -62 0
3 -63 0
-4 -63 0
-13 -63 0
16 -63 0
17 -63 0
19 -63 0
-30 -63 0
35 -63 0
-37 -63 0
3 63 0
-12 63 0
-17 63 0
19 63 0
-28 63 0
29 63 0
-31 63 0
34 63 0
40 63 0
14 -64 0
-16 -64 0
28 -64 0
-32 -64 0
-39 -64 0
17 64 0
-21 64 0
-23 64 0
25 64 0
26 64 0
-27 64 0
-33 64 0
-6 -65 0
-19 -65 0
-24 -65 0
30 -65 0
-31 -65 0
33 -65 0
-39 -65 0
3 65 0
-6 65 0
-1 -66 0
2 -66 0
5 -66 0
14 -66 0
36 -66 0
37 -66 0
39 -66 0
5 66 0
-10 -67 0
13 -67 0
-16 -67 0
-26 -67 0
31 -67 0
34 -67 0
-36 -67 0
6 67 0
8 67 0
-10 67 0
-21 67 0
-30 67 0
31 67 0
7 -68 0
-30 -68 0
35 -68 0
37 -68 0
-40 -68 0
6 68 0
11 68 0
16 68 0
19 68 0
30 68 0
-34 68 0
-5 -69 0
-10 -69 0
3 69 0
-4 69 0
6 69 0
16 69 0
-29 69 0
10 -70 0
12 -70 0
21 -70 0
-22 -70 0
30 -70 0
-33 -70 0
33 -70 0
34 -70 0
-20 70 0
25 70 0
29 70 0
34 70 0
-5 -71 0
-30 -71 0
12 71 0
19 71 0
-28 71 0
33 71 0
-38 71 0
-2 -72 0
-3 -72 0
3 -72 0
21 -72 0
-31 -72 0
33 -72 0
7 72 0
9 72 0
11 72 0
-13 72 0
-29 72 0
30 72 0
35 72 0
-38 72 0
2 -73 0
5 -73 0
-35 -73 0
-36 -73 0
4 73 0
11 73 0
-22 73 0
27 73 0
29 73 0
37 73 0
-24 -74 0
-26 -74 0
-29 -74 0
29 -74 0
30 -74 0
4 74 0
11 74 0
-19 74 0
30 74 0
36 74 0
-10 -75 0
22 -75 0
34 -75 0
-35 -75 0
15 75 0
19 75 0
-6 -76 0
-12 -76 0
21 -76 0
-26 -76 0
26 -76 0
33 -76 0
34 -76 0
-38 -76 0
8 76 0
12 76 0
18 76 0
-19 -77 0
-32 -77 0
-39 -77 0
7 77 0
8 77 0
-12 77 0
15 77 0
-19 77 0
-24 77 0
-9 -78 0
-11 -78 0
17 -78 0
-27 -78 0
-36 -78 0
-37 -78 0
8 78 0
-9 78 0
11 -79 0
15 -79 0
40 -79 0
16 79 0
-19 79 0
19 79 0
-31 79 0
32 79 0
39 79 0
18 -80 0
24 -80 0
-25 -80 0
35 -80 0
-37 -80 0
-16 80 0
16 80 0
-30 80 0
-31 80 0
39 80 0
40 80 0
